100 3911
357 750 799 947 353 872 505 731 294 546 422 66 298 201 454 499 117 681 186 825 433 254 299 503 400 54 447 671 521 56 572 823 67 494 835 140 968 374 14 875 851 253 81 938 866 106 300 548 748 9 830 762 522 708 747 721 866 651 535 738 39 797 481 173 338 644 480 141 804 469 600 654 400 981 534 921 301 284 351 127 474 949 549 905 112 644 313 294 707 958 537 509 137 788 555 894 936 47 832 908 
627 831 93 574 215 933 56 127 952 333 351 934 735 103 848 808 320 483 780 953 16 955 95 178 416 99 597 227 697 618 941 527 95 656 351 68 351 96 239 810 994 765 281 657 786 190 821 733 682 635 362 539 872 383 748 443 868 278 279 509 624 918 371 294 319 575 128 74 359 389 313 1 649 114 419 396 998 214 196 294 553 225 718 173 161 957 67 759 909 566 392 808 544 555 843 664 124 988 655 159 
